20 64
1 5 1
1 7 1
1 8 1
1 9 1
1 10 1
1 13 1
1 14 1
1 15 1
1 17 1
1 19 1
2 5 1
2 6 1
2 9 1
2 11 1
3 5 1
3 6 1
3 7 1
3 10 1
3 11 1
3 12 1
3 16 1
3 20 1
4 5 1
4 6 1
4 7 1
4 8 1
4 16 1
4 17 1
5 6 1
5 8 1
5 9 1
5 10 1
5 15 1
5 19 1
6 7 1
6 8 1
6 9 1
6 11 1
6 13 1
6 15 1
6 17 1
6 18 1
6 19 1
6 20 1
7 11 1
7 12 1
7 15 1
7 20 1
8 10 1
8 12 1
8 18 1
9 13 1
10 14 1
10 16 1
11 12 1
11 13 1
12 14 1
12 17 1
13 14 1
13 16 1
14 19 1
16 18 1
17 18 1
18 20 1
